% Generated by MiniZinc 2.9.3
% Solver library: /home/icwmmarijnisse/Pumpkin/minizinc/lib
% Command line invocation: minizinc --compile --fzn ./instance.fzn --ozn ./instance.ozn --solver pumpkin ../../../../benchmarks/models/sudoku/instances/sudoku_alldifferent.mzn ../../../../benchmarks/models/sudoku/instances/sudoku_p17.dzn 

predicate pumpkin_all_different(array [int] of var int: x);
var 1..9: X_INTRODUCED_17_ ::var_is_introduced ;
var 1..9: X_INTRODUCED_18_ ::var_is_introduced ;
var 1..9: X_INTRODUCED_19_ ::var_is_introduced ;
var 1..9: X_INTRODUCED_20_ ::var_is_introduced ;
var 1..9: X_INTRODUCED_21_ ::var_is_introduced ;
var 1..9: X_INTRODUCED_22_ ::var_is_introduced ;
var 1..9: X_INTRODUCED_23_ ::var_is_introduced ;
var 1..9: X_INTRODUCED_24_ ::var_is_introduced ;
var 1..9: X_INTRODUCED_25_ ::var_is_introduced ;
var 1..9: X_INTRODUCED_26_ ::var_is_introduced ;
var 1..9: X_INTRODUCED_27_ ::var_is_introduced ;
array [1..81] of var int: X_INTRODUCED_16_:: output_array([1..81]) = [2,5,8,1,X_INTRODUCED_27_,4,X_INTRODUCED_26_,3,7,9,3,6,8,2,7,5,1,4,4,7,1,5,3,X_INTRODUCED_25_,2,8,X_INTRODUCED_24_,7,1,5,2,X_INTRODUCED_23_,3,X_INTRODUCED_22_,4,X_INTRODUCED_21_,8,4,9,6,7,5,3,2,1,3,6,2,4,1,X_INTRODUCED_20_,X_INTRODUCED_19_,7,5,1,2,4,9,X_INTRODUCED_18_,X_INTRODUCED_17_,7,5,3,5,9,3,7,4,2,1,6,8,6,8,7,3,5,1,4,9,2];
array [1..81] of var int: X_INTRODUCED_28_ ::var_is_introduced  = [2,5,8,1,X_INTRODUCED_27_,4,X_INTRODUCED_26_,3,7,9,3,6,8,2,7,5,1,4,4,7,1,5,3,X_INTRODUCED_25_,2,8,X_INTRODUCED_24_,7,1,5,2,X_INTRODUCED_23_,3,X_INTRODUCED_22_,4,X_INTRODUCED_21_,8,4,9,6,7,5,3,2,1,3,6,2,4,1,X_INTRODUCED_20_,X_INTRODUCED_19_,7,5,1,2,4,9,X_INTRODUCED_18_,X_INTRODUCED_17_,7,5,3,5,9,3,7,4,2,1,6,8,6,8,7,3,5,1,4,9,2];
array [1..9] of var int: X_INTRODUCED_29_ ::var_is_introduced  = [2,5,8,1,X_INTRODUCED_27_,4,X_INTRODUCED_26_,3,7];
array [1..9] of var int: X_INTRODUCED_31_ ::var_is_introduced  = [4,7,1,5,3,X_INTRODUCED_25_,2,8,X_INTRODUCED_24_];
array [1..9] of var int: X_INTRODUCED_32_ ::var_is_introduced  = [7,1,5,2,X_INTRODUCED_23_,3,X_INTRODUCED_22_,4,X_INTRODUCED_21_];
array [1..9] of var int: X_INTRODUCED_34_ ::var_is_introduced  = [3,6,2,4,1,X_INTRODUCED_20_,X_INTRODUCED_19_,7,5];
array [1..9] of var int: X_INTRODUCED_35_ ::var_is_introduced  = [1,2,4,9,X_INTRODUCED_18_,X_INTRODUCED_17_,7,5,3];
array [1..9] of var int: X_INTRODUCED_42_ ::var_is_introduced  = [X_INTRODUCED_27_,2,3,X_INTRODUCED_23_,7,1,X_INTRODUCED_18_,4,5];
array [1..9] of var int: X_INTRODUCED_43_ ::var_is_introduced  = [4,7,X_INTRODUCED_25_,3,5,X_INTRODUCED_20_,X_INTRODUCED_17_,2,1];
array [1..9] of var int: X_INTRODUCED_44_ ::var_is_introduced  = [X_INTRODUCED_26_,5,2,X_INTRODUCED_22_,3,X_INTRODUCED_19_,7,1,4];
array [1..9] of var int: X_INTRODUCED_46_ ::var_is_introduced  = [7,4,X_INTRODUCED_24_,X_INTRODUCED_21_,1,5,3,8,2];
array [1..9] of var int: X_INTRODUCED_48_ ::var_is_introduced  = [1,X_INTRODUCED_27_,4,8,2,7,5,3,X_INTRODUCED_25_];
array [1..9] of var int: X_INTRODUCED_49_ ::var_is_introduced  = [X_INTRODUCED_26_,3,7,5,1,4,2,8,X_INTRODUCED_24_];
array [1..9] of var int: X_INTRODUCED_51_ ::var_is_introduced  = [2,X_INTRODUCED_23_,3,6,7,5,4,1,X_INTRODUCED_20_];
array [1..9] of var int: X_INTRODUCED_52_ ::var_is_introduced  = [X_INTRODUCED_22_,4,X_INTRODUCED_21_,3,2,1,X_INTRODUCED_19_,7,5];
array [1..9] of var int: X_INTRODUCED_54_ ::var_is_introduced  = [9,X_INTRODUCED_18_,X_INTRODUCED_17_,7,4,2,3,5,1];
constraint pumpkin_all_different(X_INTRODUCED_29_);
constraint pumpkin_all_different(X_INTRODUCED_31_);
constraint pumpkin_all_different(X_INTRODUCED_32_);
constraint pumpkin_all_different(X_INTRODUCED_34_);
constraint pumpkin_all_different(X_INTRODUCED_35_);
constraint pumpkin_all_different(X_INTRODUCED_42_):: domain;
constraint pumpkin_all_different(X_INTRODUCED_43_):: domain;
constraint pumpkin_all_different(X_INTRODUCED_44_):: domain;
constraint pumpkin_all_different(X_INTRODUCED_46_):: domain;
constraint pumpkin_all_different(X_INTRODUCED_48_);
constraint pumpkin_all_different(X_INTRODUCED_49_);
constraint pumpkin_all_different(X_INTRODUCED_51_);
constraint pumpkin_all_different(X_INTRODUCED_52_);
constraint pumpkin_all_different(X_INTRODUCED_54_);
solve :: int_search(X_INTRODUCED_28_,first_fail,indomain_min,complete) satisfy;
